c description: Random 3-CNF over 9 variables and 36 clauses
p cnf 9 36
-1 7 -9 0
1 -8 9 0
2 -7 -9 0
2 -5 7 0
-4 6 -7 0
-4 -7 8 0
-2 4 -7 0
-4 -7 -9 0
4 -6 9 0
1 5 8 0
2 -3 -6 0
1 4 -6 0
2 -6 -9 0
-3 7 8 0
-1 -2 5 0
-3 4 -7 0
-3 -4 8 0
1 -5 -7 0
2 -4 -5 0
-5 7 -8 0
1 3 -8 0
-1 4 5 0
-2 -3 5 0
2 3 -7 0
-3 8 -9 0
-2 -7 -8 0
1 -2 -4 0
-4 6 -8 0
1 6 -8 0
-1 4 7 0
-1 -8 -9 0
1 2 -8 0
3 -4 8 0
-2 7 8 0
-3 -4 -9 0
1 -2 -9 0